c FILE: i080-131

c SOURCE: From steinlib

c DESCRIPTION: Steinlib instance with 80 nodes and 160 edges.

p edge 80 160
e 1 9
e 1 10
e 1 20
e 1 23
e 1 42
e 1 44
e 1 47
e 1 66
e 1 67
e 1 69
e 2 39
e 2 66
e 3 36
e 3 73
e 4 33
e 4 66
e 5 10
e 5 31
e 5 73
e 6 15
e 6 22
e 6 28
e 6 41
e 7 18
e 7 28
e 7 37
e 7 50
e 7 76
e 8 9
e 8 67
e 9 40
e 9 54
e 9 62
e 9 75
e 9 78
e 10 15
e 10 23
e 10 48
e 11 80
e 12 23
e 12 26
e 12 31
e 12 78
e 13 25
e 13 37
e 13 38
e 13 70
e 14 30
e 14 37
e 14 38
e 14 47
e 14 69
e 15 41
e 15 57
e 15 75
e 16 18
e 16 36
e 16 42
e 16 53
e 17 29
e 17 35
e 17 75
e 17 77
e 17 80
e 18 53
e 19 35
e 19 42
e 19 53
e 19 65
e 20 25
e 20 45
e 20 63
e 20 80
e 21 24
e 21 75
e 22 26
e 22 34
e 22 62
e 23 28
e 23 57
e 23 65
e 23 68
e 24 42
e 24 47
e 24 55
e 24 63
e 26 37
e 26 52
e 26 72
e 27 48
e 27 77
e 28 29
e 28 39
e 28 50
e 29 32
e 29 51
e 29 58
e 29 64
e 30 32
e 30 33
e 30 51
e 30 69
e 30 71
e 30 79
e 31 65
e 31 67
e 33 47
e 33 70
e 34 48
e 34 70
e 35 42
e 35 52
e 36 43
e 36 63
e 36 65
e 36 72
e 38 75
e 39 65
e 40 75
e 40 76
e 41 49
e 41 54
e 41 62
e 42 45
e 42 52
e 42 71
e 44 72
e 44 75
e 46 61
e 46 68
e 46 79
e 47 80
e 48 77
e 48 78
e 49 55
e 49 66
e 50 51
e 50 52
e 50 68
e 52 74
e 54 56
e 54 64
e 54 71
e 55 59
e 55 66
e 55 69
e 56 68
e 58 69
e 59 74
e 60 78
e 61 79
e 67 70
e 67 77
e 69 74
e 69 77
e 70 76
e 71 80
e 74 80
e 76 79
e 77 78
